pair_coeff 1 1 0.046 0.40001352444501 1 0.046 0.40001352444501
pair_coeff 1 2 0.039547439866570375 1.39381104453056 1 0.039547439866570375 1.39381104453056
pair_coeff 1 3 0.0332264954516723 1.39381104453056 1 0.0332264954516723 1.39381104453056
pair_coeff 1 4 0.03714835124201342 1.410025401200715 0.75 0.03714835124201342 1.410025401200715
pair_coeff 1 5 0.07113367697511495 1.9818041985031851 0.75 0.07113367697511495 1.9818041985031851
pair_coeff 1 6 0.05674504383644443 1.975033368245315 0.75 0.05674504383644443 1.975033368245315
pair_coeff 1 7 0.050754310161798086 1.990713185684585 1 0.021447610589527218 1.89271432668915
pair_coeff 1 8 0.05989991652748775 2.017440147228795 1 0.021447610589527218 1.89271432668915
pair_coeff 1 9 0.09591663046625439 1.848169390782135 0.75 0.09591663046625439 1.58089977534003
pair_coeff 1 10 0.07429670248402684 1.71453458306108 0.75 0.07429670248402684 1.44726496761898
pair_coeff 1 11 0.08364568129915614 1.776897493330905 1 0.08364568129915614 1.776897493330905
pair_coeff 1 12 0.046 0.40001352444501 0.75 0.046 0.40001352444501
pair_coeff 1 13 0.0332264954516723 1.39381104453056 0.75 0.0332264954516723 1.39381104453056
pair_coeff 1 14 0.05989991652748775 2.017440147228795 0.75 0.021447610589527218 1.89271432668915
pair_coeff 1 15 0.08364568129915614 1.776897493330905 0.75 0.08364568129915614 1.776897493330905
pair_coeff 2 2 0.034 2.38760856461611 1 0.034 2.38760856461611
pair_coeff 2 3 0.028565713714171402 2.38760856461611 1 0.028565713714171402 2.38760856461611
pair_coeff 2 4 0.03193743884534263 2.403822921286265 0.75 0.03193743884534263 2.403822921286265
pair_coeff 2 5 0.06115553940568262 2.9756017185887353 0.75 0.06115553940568262 2.9756017185887353
pair_coeff 2 6 0.04878524367060188 2.968830888330865 0.75 0.04878524367060188 2.968830888330865
pair_coeff 2 7 0.04363484845854286 2.984510705770135 1 0.018439088914585774 2.8865118467746997
pair_coeff 2 8 0.051497572758334935 3.011237667314345 1 0.018439088914585774 2.8865118467746997
pair_coeff 2 9 0.08246211251235322 2.841966910867685 0.75 0.08246211251235322 2.57469729542558
pair_coeff 2 10 0.06387487769068526 2.7083321031466303 0.75 0.06387487769068526 2.4410624877045297
pair_coeff 2 11 0.07191244676688452 2.770695013416455 1 0.07191244676688452 2.770695013416455
pair_coeff 2 12 0.039547439866570375 1.39381104453056 0.75 0.039547439866570375 1.39381104453056
pair_coeff 2 13 0.028565713714171402 2.38760856461611 0.75 0.028565713714171402 2.38760856461611
pair_coeff 2 14 0.051497572758334935 3.011237667314345 0.75 0.018439088914585774 2.8865118467746997
pair_coeff 2 15 0.07191244676688452 2.770695013416455 0.75 0.07191244676688452 2.770695013416455
pair_coeff 3 3 0.024 2.38760856461611 1 0.024 2.38760856461611
pair_coeff 3 4 0.026832815729997475 2.403822921286265 0.75 0.026832815729997475 2.403822921286265
pair_coeff 3 5 0.05138093031466052 2.9756017185887353 0.75 0.05138093031466052 2.9756017185887353
pair_coeff 3 6 0.040987803063838396 2.968830888330865 0.75 0.040987803063838396 2.968830888330865
pair_coeff 3 7 0.036660605559646724 2.984510705770135 1 0.015491933384829668 2.8865118467746997
pair_coeff 3 8 0.04326661530556787 3.011237667314345 1 0.015491933384829668 2.8865118467746997
pair_coeff 3 9 0.06928203230275509 2.841966910867685 0.75 0.06928203230275509 2.57469729542558
pair_coeff 3 10 0.05366563145999495 2.7083321031466303 0.75 0.05366563145999495 2.4410624877045297
pair_coeff 3 11 0.06041854020083571 2.770695013416455 1 0.06041854020083571 2.770695013416455
pair_coeff 3 12 0.0332264954516723 1.39381104453056 0.75 0.0332264954516723 1.39381104453056
pair_coeff 3 13 0.024 2.38760856461611 0.75 0.024 2.38760856461611
pair_coeff 3 14 0.04326661530556787 3.011237667314345 0.75 0.015491933384829668 2.8865118467746997
pair_coeff 3 15 0.06041854020083571 2.770695013416455 0.75 0.06041854020083571 2.770695013416455
pair_coeff 4 4 0.03 2.42003727795642 1 0.03 2.42003727795642
pair_coeff 4 5 0.05744562646538029 2.99181607525889 1 0.05744562646538029 2.99181607525889
pair_coeff 4 6 0.045825756949558406 2.98504524500102 1 0.045825756949558406 2.98504524500102
pair_coeff 4 7 0.040987803063838396 3.00072506244029 0.75 0.017320508075688773 2.902726203444855
pair_coeff 4 8 0.0483735464897913 3.0274520239845 0.75 0.017320508075688773 2.902726203444855
pair_coeff 4 9 0.07745966692414834 2.85818126753784 1 0.07745966692414834 2.590911652095735
pair_coeff 4 10 0.06 2.724546459816785 1 0.06 2.457276844374685
pair_coeff 4 11 0.06754998149518622 2.78690937008661 0.75 0.06754998149518622 2.78690937008661
pair_coeff 4 12 0.03714835124201342 1.410025401200715 1 0.03714835124201342 1.410025401200715
pair_coeff 4 13 0.026832815729997475 2.403822921286265 1 0.026832815729997475 2.403822921286265
pair_coeff 4 14 0.0483735464897913 3.0274520239845 1 0.017320508075688773 2.902726203444855
pair_coeff 4 15 0.06754998149518622 2.78690937008661 1 0.06754998149518622 2.78690937008661
pair_coeff 5 5 0.11 3.56359487256136 1 0.11 3.56359487256136
pair_coeff 5 6 0.08774964387392123 3.5568240423034903 1 0.08774964387392123 3.5568240423034903
pair_coeff 5 7 0.07848566748139434 3.57250385974276 0.75 0.033166247903554 3.474505000747325
pair_coeff 5 8 0.09262828941527529 3.5992308212869704 0.75 0.033166247903554 3.474505000747325
pair_coeff 5 9 0.14832396974191325 3.4299600648403104 1 0.14832396974191325 3.1626904493982053
pair_coeff 5 10 0.11489125293076058 3.296325257119255 1 0.11489125293076058 3.029055641677155
pair_coeff 5 11 0.1293483668238606 3.3586881673890803 0.75 0.1293483668238606 3.3586881673890803
pair_coeff 5 12 0.07113367697511495 1.9818041985031851 1 0.07113367697511495 1.9818041985031851
pair_coeff 5 13 0.05138093031466052 2.9756017185887353 1 0.05138093031466052 2.9756017185887353
pair_coeff 5 14 0.09262828941527529 3.5992308212869704 1 0.033166247903554 3.474505000747325
pair_coeff 5 15 0.1293483668238606 3.3586881673890803 1 0.1293483668238606 3.3586881673890803
pair_coeff 6 6 0.07 3.55005321204562 1 0.07 3.55005321204562
pair_coeff 6 7 0.06260990336999411 3.56573302948489 0.75 0.026457513110645908 3.4677341704894546
pair_coeff 6 8 0.07389181280764466 3.5924599910291 0.75 0.026457513110645908 3.4677341704894546
pair_coeff 6 9 0.11832159566199232 3.42318923458244 1 0.11832159566199232 3.155919619140335
pair_coeff 6 10 0.09165151389911681 3.289554426861385 1 0.09165151389911681 3.0222848114192846
pair_coeff 6 11 0.10318430113151904 3.35191733713121 0.75 0.10318430113151904 3.35191733713121
pair_coeff 6 12 0.05674504383644443 1.975033368245315 1 0.05674504383644443 1.975033368245315
pair_coeff 6 13 0.040987803063838396 2.968830888330865 1 0.040987803063838396 2.968830888330865
pair_coeff 6 14 0.07389181280764466 3.5924599910291 1 0.026457513110645908 3.4677341704894546
pair_coeff 6 15 0.10318430113151904 3.35191733713121 1 0.10318430113151904 3.35191733713121
pair_coeff 7 7 0.056 3.58141284692416 1 0.01 3.38541512893329
pair_coeff 7 8 0.06609084656743322 3.60813980846837 1 0.01 3.38541512893329
pair_coeff 7 9 0.10583005244258363 3.43886905202171 0.75 0.044721359549995794 3.0736005775841697
pair_coeff 7 10 0.08197560612767679 3.305234244300655 0.75 0.034641016151377546 2.93996576986312
pair_coeff 7 11 0.092290844616354 3.36759715457048 1 0.039 3.2695982955750447
pair_coeff 7 12 0.050754310161798086 1.990713185684585 0.75 0.021447610589527218 1.89271432668915
pair_coeff 7 13 0.036660605559646724 2.984510705770135 0.75 0.015491933384829668 2.8865118467746997
pair_coeff 7 14 0.06609084656743322 3.60813980846837 0.75 0.01 3.38541512893329
pair_coeff 7 15 0.092290844616354 3.36759715457048 0.75 0.039 3.2695982955750447
pair_coeff 8 8 0.078 3.63486677001258 1 0.01 3.38541512893329
pair_coeff 8 9 0.12489995996796797 3.46559601356592 0.75 0.044721359549995794 3.0736005775841697
pair_coeff 8 10 0.0967470929795826 3.3319612058448653 0.75 0.034641016151377546 2.93996576986312
pair_coeff 8 11 0.10892107234139775 3.39432411611469 1 0.039 3.2695982955750447
pair_coeff 8 12 0.05989991652748775 2.017440147228795 0.75 0.021447610589527218 1.89271432668915
pair_coeff 8 13 0.04326661530556787 3.011237667314345 0.75 0.015491933384829668 2.8865118467746997
pair_coeff 8 14 0.078 3.63486677001258 0.75 0.01 3.38541512893329
pair_coeff 8 15 0.10892107234139775 3.39432411611469 0.75 0.039 3.2695982955750447
pair_coeff 9 9 0.2 3.29632525711926 1 0.2 2.76178602623505
pair_coeff 9 10 0.15491933384829668 3.1626904493982053 1 0.15491933384829668 2.6281512185139997
pair_coeff 9 11 0.1744133022449836 3.22505335966803 0.75 0.1744133022449836 2.957783744225925
pair_coeff 9 12 0.09591663046625439 1.848169390782135 1 0.09591663046625439 1.58089977534003
pair_coeff 9 13 0.06928203230275509 2.841966910867685 1 0.06928203230275509 2.57469729542558
pair_coeff 9 14 0.12489995996796797 3.46559601356592 1 0.044721359549995794 3.0736005775841697
pair_coeff 9 15 0.1744133022449836 3.22505335966803 1 0.1744133022449836 2.957783744225925
pair_coeff 10 10 0.12 3.02905564167715 1 0.12 2.49451641079295
pair_coeff 10 11 0.13509996299037244 3.0914185519469752 0.75 0.13509996299037244 2.8241489365048746
pair_coeff 10 12 0.07429670248402684 1.71453458306108 1 0.07429670248402684 1.44726496761898
pair_coeff 10 13 0.05366563145999495 2.7083321031466303 1 0.05366563145999495 2.4410624877045297
pair_coeff 10 14 0.0967470929795826 3.3319612058448653 1 0.034641016151377546 2.93996576986312
pair_coeff 10 15 0.13509996299037244 3.0914185519469752 1 0.13509996299037244 2.8241489365048746
pair_coeff 11 11 0.1521 3.1537814622168 1 0.1521 3.1537814622168
pair_coeff 11 12 0.08364568129915614 1.776897493330905 0.75 0.08364568129915614 1.776897493330905
pair_coeff 11 13 0.06041854020083571 2.770695013416455 0.75 0.06041854020083571 2.770695013416455
pair_coeff 11 14 0.10892107234139775 3.39432411611469 0.75 0.039 3.2695982955750447
pair_coeff 11 15 0.1521 3.1537814622168 0.75 0.1521 3.1537814622168
pair_coeff 12 12 0.046 0.40001352444501 1 0.046 0.40001352444501
pair_coeff 12 13 0.0332264954516723 1.39381104453056 1 0.0332264954516723 1.39381104453056
pair_coeff 12 14 0.05989991652748775 2.017440147228795 1 0.021447610589527218 1.89271432668915
pair_coeff 12 15 0.08364568129915614 1.776897493330905 1 0.08364568129915614 1.776897493330905
pair_coeff 13 13 0.024 2.38760856461611 1 0.024 2.38760856461611
pair_coeff 13 14 0.04326661530556787 3.011237667314345 1 0.015491933384829668 2.8865118467746997
pair_coeff 13 15 0.06041854020083571 2.770695013416455 1 0.06041854020083571 2.770695013416455
pair_coeff 14 14 0.078 3.63486677001258 1 0.01 3.38541512893329
pair_coeff 14 15 0.10892107234139775 3.39432411611469 1 0.039 3.2695982955750447
pair_coeff 15 15 0.1521 3.1537814622168 1 0.1521 3.1537814622168
