#
units           real
atom_style      charge

neighbor        1.5    bin 
neigh_modify    delay 0 every 1 check yes

#replicate 2 2 2

# Defining the pair style. In this case is a LJ with cutoff and Coulombic interaction is treated not
# with a cutoff but with PPPM
pair_style lj/cut/coul/long 10.0
kspace_style pppm 1.0e-5


read_data    ../minimised.dat

set type 1 charge -1.0
set type 2 charge +1.0

mass 1 35.453
mass 2 22.9898

# These are the coefficient for the LJ interaction. The first two number are the index
# referring to the atomic species in the .data file (index must match the atoms. double check!)
# the symbol * can be used to say that the interaction is valid for all the atoms in the system.
pair_coeff 1 1 0.012785 4.830 # Cl
pair_coeff 2 2 0.3526418 2.160 # Na
pair_modify tail yes mix arithmetic

# Define the screen output of the simulation. The first command define the stride at which
# the information are printed. The second style define what have to be printed.
thermo          100
thermo_style    custom step pe etotal temp press lx vol


fix 1 all ipi nacl-AW-TTTTT 32346 unix
#
run 100000
