pair_coeff 1 1 0.046 0.40001352444501 1 0.046 0.40001352444501
pair_coeff 1 2 0.046 0.40001352444501 0.8 0.046 0.40001352444501
pair_coeff 1 3 0.05674504383644443 1.9818041985031851 1 0.05674504383644443 1.9818041985031851
pair_coeff 1 4 0.09591663046625439 1.848169390782135 1 0.09591663046625439 1.848169390782135
pair_coeff 1 5 0.07429670248402684 1.71453458306108 1 0.07429670248402684 1.44726496761898
pair_coeff 1 6 0.08364568129915614 1.775293875638255 0.8 0.08364568129915614 1.775293875638255
pair_coeff 2 2 0.046 0.40001352444501 1 0.046 0.40001352444501
pair_coeff 2 3 0.05674504383644443 1.9818041985031851 0.8 0.05674504383644443 1.9818041985031851
pair_coeff 2 4 0.09591663046625439 1.848169390782135 0.8 0.09591663046625439 1.848169390782135
pair_coeff 2 5 0.07429670248402684 1.71453458306108 0.8 0.07429670248402684 1.44726496761898
pair_coeff 2 6 0.08364568129915614 1.775293875638255 1 0.08364568129915614 1.775293875638255
pair_coeff 3 3 0.07 3.56359487256136 1 0.07 3.56359487256136
pair_coeff 3 4 0.11832159566199232 3.4299600648403104 1 0.11832159566199232 3.4299600648403104
pair_coeff 3 5 0.09165151389911681 3.296325257119255 1 0.09165151389911681 3.029055641677155
pair_coeff 3 6 0.10318430113151904 3.35708454969643 0.8 0.10318430113151904 3.35708454969643
pair_coeff 4 4 0.2 3.29632525711926 1 0.2 3.29632525711926
pair_coeff 4 5 0.15491933384829668 3.1626904493982053 1 0.15491933384829668 2.8954208339561047
pair_coeff 4 6 0.1744133022449836 3.2234497419753803 0.8 0.1744133022449836 3.2234497419753803
pair_coeff 5 5 0.12 3.02905564167715 1 0.12 2.49451641079295
pair_coeff 5 6 0.13509996299037244 3.089814934254325 0.8 0.13509996299037244 2.822545318812225
pair_coeff 6 6 0.1521 3.1505742268315 1 0.1521 3.1505742268315
