units           real # Angstroms, fs, kcal/mol, atomsphere
boundary        p p p
atom_style      full

neighbor        1.5    bin
neigh_modify    delay 0 every 1 check yes

read_data       ../input-config.dat

include ../inter.pp

neighbor        2 bin
neigh_modify    delay 0 every 1

thermo          100
thermo_style    custom step time temp pe press vol ebond eangle edihed eimp evdwl ecoul elong

## SHAKE used for water
# fix             sh all shake 0.0001 20 0 b 1 a 1

fix 1 all ipi inter-WWWWW-RRRRR 32346 unix
run 10000000
